language ESSENCE' 1.0
$ loaded file: carseqdata/csplib-instance-9
letting numcars=100
letting numclasses=24
letting numoptions=5
letting optMax=[1, 2, 1, 2, 1]
letting windowSize=[2, 3, 3, 5, 5]
letting numberPerClass=[2, 13, 10, 14, 5, 2, 2, 8, 5, 3, 9, 6, 2, 2, 1, 2, 2, 1, 1, 6, 1, 1, 1, 1]
letting optionsRequired=[[1, 1, 0, 1, 0], [0, 1, 0, 0, 0], [0, 1, 0, 1, 0], [1, 1, 0, 0, 0], [0, 0, 0, 1, 0], [0, 1, 0, 1, 1], [0, 1, 1, 0, 0], [1, 0, 0, 1, 0], [0, 0, 1, 1, 0], [1, 1, 1, 0, 0], [1, 0, 0, 0, 0], [1, 1, 0, 0, 1], [1, 1, 1, 1, 0], [0, 0, 0, 0, 1], [1, 1, 1, 0, 1], [0, 1, 1, 1, 0], [1, 0, 1, 0, 0], [1, 0, 0, 0, 1], [1, 0, 1, 1, 0], [0, 0, 1, 0, 0], [1, 1, 1, 1, 1], [0, 0, 1, 1, 1], [0, 1, 1, 0, 1], [0, 0, 1, 0, 1]]
